Grasp exp. instance_n_15_m_5_id_3.lp tipoLifted 0 szPool 5 nIteration 20 alpha 0.8 
Academic license - for non-commercial use only
Read LP format model from file ../input/instancesGenerated/instance_n_15_m_5_id_3.lp
Reading time = 0.00 seconds
: 5 rows, 15 columns, 75 nonzeros
Optimize a model with 5 rows, 15 columns and 75 nonzeros
Variable types: 0 continuous, 15 integer (15 binary)
Coefficient statistics:
  Matrix range     [1e+00, 1e+01]
  Objective range  [1e+00, 1e+01]
  Bounds range     [1e+00, 1e+00]
  RHS range        [4e+01, 4e+01]
Found heuristic solution: objective 45.0000000

Explored 0 nodes (0 simplex iterations) in 0.00 seconds
Thread count was 1 (of 8 available processors)

Solution count 1: 45 
No other solutions better than 0

Solution limit reached
Best objective 4.500000000000e+01, best bound -, gap -
C_1:	 3.00 x_1  = 0.000000 + 4.00 x_2  = 1.000000 + 2.00 x_3  = 0.000000 + 3.00 x_4  = 0.000000 + 5.00 x_5  = 1.000000 + 7.00 x_6  = 1.000000 + 4.00 x_7  = 0.250000 + 4.00 x_8  = 0.000000 + 4.00 x_9  = 1.000000 + 1.00 x_10  = 1.000000 + 9.00 x_11  = 0.000000 + 4.00 x_12  = 1.000000 + 4.00 x_13  = 0.000000 + 9.00 x_14  = 0.000000 + 9.00 x_15  = 0.593750 <= 36.00
C_2:	 7.00 x_1  = 0.000000 + 4.00 x_2  = 1.000000 + 7.00 x_3  = 0.000000 + 2.00 x_4  = 0.000000 + 7.00 x_5  = 1.000000 + 8.00 x_6  = 1.000000 + 1.00 x_7  = 0.250000 + 4.00 x_8  = 0.000000 + 3.00 x_9  = 1.000000 + 8.00 x_10  = 1.000000 + 2.00 x_11  = 0.000000 + 3.00 x_12  = 1.000000 + 6.00 x_13  = 0.000000 + 7.00 x_14  = 0.000000 + 8.00 x_15  = 0.593750 <= 38.00
C_3:	 7.00 x_1  = 0.000000 + 9.00 x_2  = 1.000000 + 3.00 x_3  = 0.000000 + 8.00 x_4  = 0.000000 + 1.00 x_5  = 1.000000 + 7.00 x_6  = 1.000000 + 6.00 x_7  = 0.250000 + 7.00 x_8  = 0.000000 + 1.00 x_9  = 1.000000 + 1.00 x_10  = 1.000000 + 9.00 x_11  = 0.000000 + 1.00 x_12  = 1.000000 + 5.00 x_13  = 0.000000 + 2.00 x_14  = 0.000000 + 10.00 x_15  = 0.593750 <= 38.00
C_4:	 3.00 x_1  = 0.000000 + 10.00 x_2  = 1.000000 + 5.00 x_3  = 0.000000 + 1.00 x_4  = 0.000000 + 3.00 x_5  = 1.000000 + 3.00 x_6  = 1.000000 + 9.00 x_7  = 0.250000 + 3.00 x_8  = 0.000000 + 6.00 x_9  = 1.000000 + 1.00 x_10  = 1.000000 + 3.00 x_11  = 0.000000 + 10.00 x_12  = 1.000000 + 5.00 x_13  = 0.000000 + 10.00 x_14  = 0.000000 + 8.00 x_15  = 0.593750 <= 40.00
C_5:	 2.00 x_1  = 0.000000 + 7.00 x_2  = 1.000000 + 8.00 x_3  = 0.000000 + 5.00 x_4  = 0.000000 + 6.00 x_5  = 1.000000 + 1.00 x_6  = 1.000000 + 3.00 x_7  = 0.250000 + 2.00 x_8  = 0.000000 + 7.00 x_9  = 1.000000 + 3.00 x_10  = 1.000000 + 4.00 x_11  = 0.000000 + 5.00 x_12  = 1.000000 + 4.00 x_13  = 0.000000 + 8.00 x_14  = 0.000000 + 8.00 x_15  = 0.593750 <= 36.00
Solution initial: 60.437500 
Number Constraints Used in Cover:5
GRASP Method!
Number cuts repeat: 0
value: 60.437500
Number Constraints Used in Cover:9
GRASP Method!
Number cuts repeat: 0
value: 60.437500
Number Constraints Used in Cover:11
GRASP Method!
Number cuts repeat: 0
value: 60.437500
Number Constraints Used in Cover:15
GRASP Method!
Number cuts repeat: 0
value: 60.437500
Number Constraints Used in Cover:16
GRASP Method!
Number cuts repeat: 0
value: 60.437500
Number Constraints Used in Cover:19
GRASP Method!
Number cuts repeat: 0
value: 60.000000
Number Constraints Used in Cover:21
GRASP Method!
Number cuts repeat: 0
value: 60.000000
Number Constraints Used in Cover:26
GRASP Method!
Number cuts repeat: 0
value: 60.000000
Number Constraints Used in Cover:31
GRASP Method!
Number cuts repeat: 0
value: 60.000000
Number Constraints Used in Cover:35
GRASP Method!
Number cuts repeat: 0
value: 60.000000
Number Constraints Used in Cover:41
GRASP Method!
Number cuts repeat: 0
value: 60.000000
Number Constraints Used in Cover:42
GRASP Method!
Number cuts repeat: 0
value: 60.000000
Number Constraints Used in Cover:45
GRASP Method!
Number cuts repeat: 0
value: 60.000000
Number Constraints Used in Cover:48
GRASP Method!
Number cuts repeat: 0
value: 60.000000
Number Constraints Used in Cover:48
GRASP Method!
Number cuts repeat: 0
value: 60.000000
Number Constraints Used in Cover:50
GRASP Method!
Number cuts repeat: 0
value: 60.000000
Number Constraints Used in Cover:55
GRASP Method!
Number cuts repeat: 0
value: 60.000000
Number Constraints Used in Cover:60
GRASP Method!
Number cuts repeat: 0
value: 60.000000
Number Constraints Used in Cover:66
GRASP Method!
Number cuts repeat: 0
value: 60.000000
Number Constraints Used in Cover:70
GRASP Method!
Number cuts repeat: 0
value: 60.000000
Number Constraints Used in Cover:77
GRASP Method!
Number cuts repeat: 0
value: 60.000000
Number Constraints Used in Cover:86
GRASP Method!
Number cuts repeat: 0
value: 60.000000
Number Constraints Used in Cover:98
GRASP Method!
Number cuts repeat: 0
value: 60.000000
Number Constraints Used in Cover:101
GRASP Method!
Number cuts repeat: 0
value: 60.000000
Number Constraints Used in Cover:109
GRASP Method!
Number cuts repeat: 0
value: 60.000000
Number Constraints Used in Cover:119
GRASP Method!
Number cuts repeat: 0
value: 60.000000
Number Constraints Used in Cover:126
GRASP Method!
Number cuts repeat: 0
value: 60.000000
Number Constraints Used in Cover:132
GRASP Method!
Number cuts repeat: 0
value: 60.000000
Number Constraints Used in Cover:142
GRASP Method!
Number cuts repeat: 0
value: 60.000000
Number Constraints Used in Cover:150
GRASP Method!
Number cuts repeat: 0
value: 60.000000
Number Constraints Used in Cover:159
GRASP Method!
Number cuts repeat: 0
value: 60.000000
Number Constraints Used in Cover:172
GRASP Method!
Number cuts repeat: 0
value: 60.000000
Number Constraints Used in Cover:181
GRASP Method!
Number cuts repeat: 0
value: 60.000000
Number Constraints Used in Cover:190
GRASP Method!
Number cuts repeat: 0
value: 60.000000
Number Constraints Used in Cover:204
GRASP Method!
Number cuts repeat: 0
value: 60.000000
Number Constraints Used in Cover:217
GRASP Method!
Number cuts repeat: 0
value: 60.000000
Number Constraints Used in Cover:235
GRASP Method!
Number cuts repeat: 0
value: 60.000000
Number Constraints Used in Cover:258
GRASP Method!
Number cuts repeat: 0
value: 60.000000
Number Constraints Used in Cover:275
GRASP Method!
Number cuts repeat: 0
value: 60.000000
Number Constraints Used in Cover:282
GRASP Method!
Number cuts repeat: 0
value: 60.000000
Number Constraints Used in Cover:297
GRASP Method!
Number cuts repeat: 0
value: 60.000000
Number Constraints Used in Cover:304
GRASP Method!
Number cuts repeat: 0
value: 60.000000
Number Constraints Used in Cover:320
GRASP Method!
Number cuts repeat: 0
value: 60.000000
Number Constraints Used in Cover:332
GRASP Method!
Number cuts repeat: 0
value: 60.000000
Number Constraints Used in Cover:346
GRASP Method!
Number cuts repeat: 0
value: 60.000000
Number Constraints Used in Cover:361
GRASP Method!
Number cuts repeat: 0
value: 60.000000
Number Constraints Used in Cover:370
GRASP Method!
Number cuts repeat: 0
value: 60.000000
Number Constraints Used in Cover:385
GRASP Method!
Number cuts repeat: 0
value: 60.000000
Number Constraints Used in Cover:393
GRASP Method!
Number cuts repeat: 0
value: 60.000000
Number Constraints Used in Cover:410
GRASP Method!
Number cuts repeat: 0
value: 60.000000
Number Constraints Used in Cover:423
GRASP Method!
Number cuts repeat: 0
value: 60.000000
Number Constraints Used in Cover:431
GRASP Method!
Number cuts repeat: 0
value: 60.000000
Number Constraints Used in Cover:438
GRASP Method!
Number cuts repeat: 0
value: 60.000000
Number Constraints Used in Cover:444
GRASP Method!
Number cuts repeat: 0
value: 60.000000
Number Constraints Used in Cover:451
GRASP Method!
Number cuts repeat: 0
value: 60.000000
Number Constraints Used in Cover:460
GRASP Method!
Number cuts repeat: 0
value: 60.000000
Number Constraints Used in Cover:471
GRASP Method!
Number cuts repeat: 0
value: 60.000000
Number Constraints Used in Cover:484
GRASP Method!
Number cuts repeat: 0
value: 60.000000
Number Constraints Used in Cover:488
GRASP Method!
Number cuts repeat: 0
value: 60.000000
Number Constraints Used in Cover:500
GRASP Method!
Number cuts repeat: 0
value: 60.000000
Number Constraints Used in Cover:515
GRASP Method!
Number cuts repeat: 0
value: 60.000000
Number Constraints Used in Cover:521
GRASP Method!
Number cuts repeat: 0
value: 60.000000
Number Constraints Used in Cover:526
GRASP Method!
Number cuts repeat: 0
value: 60.000000
Number Constraints Used in Cover:530
GRASP Method!
Number cuts repeat: 0
value: 60.000000
Number Constraints Used in Cover:533
GRASP Method!
Number cuts repeat: 0
value: 60.000000
Number Constraints Used in Cover:540
GRASP Method!
Number cuts repeat: 0
value: 60.000000
Number Constraints Used in Cover:547
GRASP Method!
Number cuts repeat: 0
value: 60.000000
Number Constraints Used in Cover:555
GRASP Method!
Number cuts repeat: 0
value: 60.000000
Number Constraints Used in Cover:559
GRASP Method!
Number cuts repeat: 0
value: 60.000000
Number Constraints Used in Cover:561
GRASP Method!
Number cuts repeat: 0
value: 60.000000
Number Constraints Used in Cover:570
GRASP Method!
Number cuts repeat: 0
value: 60.000000
Number Constraints Used in Cover:573
GRASP Method!
Number cuts repeat: 0
value: 60.000000
Number Constraints Used in Cover:577
GRASP Method!
Number cuts repeat: 0
value: 60.000000
Number Constraints Used in Cover:585
GRASP Method!
Number cuts repeat: 0
value: 60.000000
Number Constraints Used in Cover:588
GRASP Method!
Number cuts repeat: 0
value: 60.000000
Number Constraints Used in Cover:594
GRASP Method!
Number cuts repeat: 0
value: 60.000000
Number Constraints Used in Cover:605
GRASP Method!
Number cuts repeat: 0
value: 60.000000
Number Constraints Used in Cover:616
GRASP Method!
Number cuts repeat: 0
value: 60.000000
Number Constraints Used in Cover:625
GRASP Method!
Number cuts repeat: 0
value: 60.000000
Number Constraints Used in Cover:634
GRASP Method!
Number cuts repeat: 0
value: 60.000000
Number Constraints Used in Cover:644
GRASP Method!
Number cuts repeat: 0
value: 60.000000
Number Constraints Used in Cover:656
GRASP Method!
Number cuts repeat: 0
value: 60.000000
Number Constraints Used in Cover:663
GRASP Method!
Number cuts repeat: 0
value: 60.000000
Number Constraints Used in Cover:676
GRASP Method!
Number cuts repeat: 0
value: 60.000000
Number Constraints Used in Cover:691
GRASP Method!
Number cuts repeat: 0
value: 60.000000
Number Constraints Used in Cover:702
GRASP Method!
Number cuts repeat: 0
value: 60.000000
Number Constraints Used in Cover:714
GRASP Method!
Number cuts repeat: 0
value: 60.000000
Number Constraints Used in Cover:722
GRASP Method!
Number cuts repeat: 0
value: 60.000000
Number Constraints Used in Cover:731
GRASP Method!
Number cuts repeat: 0
value: 60.000000
Number Constraints Used in Cover:737
GRASP Method!
Number cuts repeat: 0
value: 60.000000
Number Constraints Used in Cover:743
GRASP Method!
Number cuts repeat: 0
value: 60.000000
Number Constraints Used in Cover:753
GRASP Method!
Number cuts repeat: 0
value: 60.000000
Number Constraints Used in Cover:764
GRASP Method!
Number cuts repeat: 0
value: 60.000000
Number Constraints Used in Cover:771
GRASP Method!
Number cuts repeat: 0
value: 60.000000
Number Constraints Used in Cover:780
GRASP Method!
Number cuts repeat: 0
value: 60.000000
Number Constraints Used in Cover:783
GRASP Method!
Number cuts repeat: 0
value: 60.000000
Number Constraints Used in Cover:794
GRASP Method!
Number cuts repeat: 0
value: 60.000000
Number Constraints Used in Cover:802
GRASP Method!
Number cuts repeat: 0
value: 60.000000
Number Constraints Used in Cover:815
GRASP Method!
Number cuts repeat: 0
value: 60.000000
Number Constraints Used in Cover:823
GRASP Method!
Number cuts repeat: 0
value: 60.000000
Number Constraints Used in Cover:832
GRASP Method!
Number cuts repeat: 0
value: 60.000000
Number Constraints Used in Cover:843
GRASP Method!
Number cuts repeat: 0
value: 60.000000
Number Constraints Used in Cover:853
GRASP Method!
Number cuts repeat: 0
value: 60.000000
Number Constraints Used in Cover:862
GRASP Method!
Number cuts repeat: 0
value: 60.000000
Number Constraints Used in Cover:872
GRASP Method!
Number cuts repeat: 0
value: 60.000000
Number Constraints Used in Cover:875
GRASP Method!
Number cuts repeat: 0
value: 60.000000
Number Constraints Used in Cover:878
GRASP Method!
Number cuts repeat: 0
value: 60.000000
Number Constraints Used in Cover:887
GRASP Method!
Number cuts repeat: 0
value: 60.000000
Number Cuts Final: 888
